Problem:    kar
Rows:       9
Columns:    6 (6 integer, 0 binary)
Non-zeros:  21
Status:     INTEGER OPTIMAL
Objective:  Scores = 196 (MAXimum)

   No.   Row name        Activity     Lower bound   Upper bound
------ ------------    ------------- ------------- -------------
     1 CantExceedBudget
                               49750                       50000 
     2 CantExceedMaxAmount[Pulyka]
                                   5                           5 
     3 CantExceedMaxAmount[Rizs]
                                   4                           4 
     4 CantExceedMaxAmount[Krumpli]
                                   6                           9 
     5 CantExceedMaxAmount[Salata]
                                  20                          20 
     6 CantExceedMaxAmount[Halaszle]
                                   0                           4 
     7 CantExceedMaxAmount[Koromporkolt]
                                  21                          22 
     8 Turkey                      0                          -0 
     9 Scores                    196                             

   No. Column name       Activity     Lower bound   Upper bound
------ ------------    ------------- ------------- -------------
     1 FoodCounts[Pulyka]
                    *              5             0               
     2 FoodCounts[Rizs]
                    *              4             0               
     3 FoodCounts[Krumpli]
                    *              6             0               
     4 FoodCounts[Salata]
                    *             20             0               
     5 FoodCounts[Halaszle]
                    *              0             0               
     6 FoodCounts[Koromporkolt]
                    *             21                0               

Integer feasibility conditions:

KKT.PE: max.abs.err = 0.00e+00 on row 0
        max.rel.err = 0.00e+00 on row 0
        High quality

KKT.PB: max.abs.err = 0.00e+00 on row 0
        max.rel.err = 0.00e+00 on row 0
        High quality

End of output
